set Products := A B C D;
set Units := U1 U2 U3 U4;

param steps :=
A 3
B 4
C 3
D 3
;

param proctime :=
[A,*,*]:	U1	U2	U3	U4 :=
		1	15	12	20	13
		2	15	14	8	7
		3	10	6	9	12
[B,*,*]:	U1	U2	U3	U4 :=
		1	10	11	9	10
		2	18	20	22	19
		3	4	6	5	5
		4	12	15	14	13
[C,*,*]:	U1	U2	U3	U4 :=
		1	10	8	9	7
		2	6	7	8	8
		3	20	19	22	21
[D,*,*]:	U1	U2	U3	U4 :=
		1	6	5	7	5
		2	18	16	17	18
		3	8	7	6	7 ;